data/results/2026_03_24_20_11_19_set_vm-4-t1_vm-4-t1_s030_g002_max.sol
# Objective value = 14
c_n9n30n32n52 4
c_n30n32n52 2
c_n9n32n52 3
c_n9n30n52 2
c_n9n30n32 3
y_n0n1 0
y_n1n2 0
y_n0n2 0
y_n1n3 0
y_n0n3 0
y_n1n4 0
y_n0n4 0
y_n1n5 0
y_n0n5 0
y_n1n6 0
y_n0n6 0
y_n1n7 0
y_n0n7 0
y_n1n8 0
y_n0n8 0
y_n1n9 0
y_n0n9 0
y_n1n10 0
y_n0n10 0
y_n1n11 0
y_n0n11 0
y_n1n12 0
y_n0n12 0
y_n1n13 0
y_n0n13 0
y_n1n14 0
y_n0n14 0
y_n1n15 0
y_n0n15 0
y_n1n16 0
y_n0n16 0
y_n1n17 0
y_n0n17 0
y_n1n18 0
y_n0n18 0
y_n1n19 0
y_n0n19 0
y_n1n20 0
y_n0n20 0
y_n1n21 0
y_n0n21 0
y_n1n22 0
y_n0n22 0
y_n1n23 0
y_n0n23 0
y_n1n24 0
y_n0n24 0
y_n1n25 0
y_n0n25 0
y_n1n26 0
y_n0n26 0
y_n1n27 0
y_n0n27 0
y_n1n28 0
y_n0n28 0
y_n1n29 0
y_n0n29 0
y_n1n30 0
y_n0n30 0
y_n1n31 0
y_n0n31 0
y_n1n32 0
y_n0n32 0
y_n1n33 0
y_n0n33 0
y_n1n34 0
y_n0n34 0
y_n1n35 0
y_n0n35 0
y_n1n36 0
y_n0n36 0
y_n1n37 0
y_n0n37 0
y_n1n38 0
y_n0n38 0
y_n1n39 0
y_n0n39 0
y_n1n40 0
y_n0n40 0
y_n1n41 0
y_n0n41 0
y_n1n42 0
y_n0n42 0
y_n1n43 0
y_n0n43 0
y_n1n44 0
y_n0n44 0
y_n1n45 0
y_n0n45 0
y_n1n46 0
y_n0n46 0
y_n1n47 0
y_n0n47 0
y_n1n48 0
y_n0n48 0
y_n1n49 0
y_n0n49 0
y_n1n50 0
y_n0n50 0
y_n1n51 0
y_n0n51 0
y_n1n52 0
y_n0n52 0
y_n1n53 0
y_n0n53 0
y_n1n54 0
y_n0n54 0
y_n1n55 0
y_n0n55 0
y_n1n56 0
y_n0n56 0
y_n1n57 0
y_n0n57 0
y_n1n58 0
y_n0n58 0
y_n1n59 0
y_n0n59 0
y_n2n3 0
y_n2n4 0
y_n2n5 0
y_n2n6 0
y_n2n7 0
y_n2n8 0
y_n2n9 0
y_n2n10 0
y_n2n11 0
y_n2n12 0
y_n2n13 0
y_n2n14 0
y_n2n15 0
y_n2n16 0
y_n2n17 0
y_n2n18 0
y_n2n19 0
y_n2n20 0
y_n2n21 0
y_n2n22 0
y_n2n23 0
y_n2n24 0
y_n2n25 0
y_n2n26 0
y_n2n27 0
y_n2n28 0
y_n2n29 0
y_n2n30 0
y_n2n31 0
y_n2n32 0
y_n2n33 0
y_n2n34 0
y_n2n35 0
y_n2n36 0
y_n2n37 0
y_n2n38 0
y_n2n39 0
y_n2n40 0
y_n2n41 0
y_n2n42 0
y_n2n43 0
y_n2n44 0
y_n2n45 0
y_n2n46 0
y_n2n47 0
y_n2n48 0
y_n2n49 0
y_n2n50 0
y_n2n51 0
y_n2n52 0
y_n2n53 0
y_n2n54 0
y_n2n55 0
y_n2n56 0
y_n2n57 0
y_n2n58 0
y_n2n59 0
y_n3n4 0
y_n3n5 0
y_n3n6 0
y_n3n7 0
y_n3n8 0
y_n3n9 0
y_n3n10 0
y_n3n11 0
y_n3n12 0
y_n3n13 0
y_n3n14 0
y_n3n15 0
y_n3n16 0
y_n3n17 0
y_n3n18 0
y_n3n19 0
y_n3n20 0
y_n3n21 0
y_n3n22 0
y_n3n23 0
y_n3n24 0
y_n3n25 0
y_n3n26 0
y_n3n27 0
y_n3n28 0
y_n3n29 0
y_n3n30 0
y_n3n31 0
y_n3n32 0
y_n3n33 0
y_n3n34 0
y_n3n35 0
y_n3n36 0
y_n3n37 0
y_n3n38 0
y_n3n39 0
y_n3n40 0
y_n3n41 0
y_n3n42 0
y_n3n43 0
y_n3n44 0
y_n3n45 0
y_n3n46 0
y_n3n47 0
y_n3n48 0
y_n3n49 0
y_n3n50 0
y_n3n51 0
y_n3n52 0
y_n3n53 0
y_n3n54 0
y_n3n55 0
y_n3n56 0
y_n3n57 0
y_n3n58 0
y_n3n59 0
y_n4n5 0
y_n4n6 0
y_n4n7 0
y_n4n8 0
y_n4n9 0
y_n4n10 0
y_n4n11 0
y_n4n12 0
y_n4n13 0
y_n4n14 0
y_n4n15 0
y_n4n16 0
y_n4n17 0
y_n4n18 0
y_n4n19 0
y_n4n20 0
y_n4n21 0
y_n4n22 0
y_n4n23 0
y_n4n24 0
y_n4n25 0
y_n4n26 0
y_n4n27 0
y_n4n28 0
y_n4n29 0
y_n4n30 0
y_n4n31 0
y_n4n32 0
y_n4n33 0
y_n4n34 0
y_n4n35 0
y_n4n36 0
y_n4n37 0
y_n4n38 0
y_n4n39 0
y_n4n40 0
y_n4n41 0
y_n4n42 0
y_n4n43 0
y_n4n44 0
y_n4n45 0
y_n4n46 0
y_n4n47 0
y_n4n48 0
y_n4n49 0
y_n4n50 0
y_n4n51 0
y_n4n52 0
y_n4n53 0
y_n4n54 0
y_n4n55 0
y_n4n56 0
y_n4n57 0
y_n4n58 0
y_n4n59 0
y_n5n6 0
y_n5n7 0
y_n5n8 0
y_n5n9 0
y_n5n10 0
y_n5n11 0
y_n5n12 0
y_n5n13 0
y_n5n14 0
y_n5n15 0
y_n5n16 0
y_n5n17 0
y_n5n18 0
y_n5n19 0
y_n5n20 0
y_n5n21 0
y_n5n22 0
y_n5n23 0
y_n5n24 0
y_n5n25 0
y_n5n26 0
y_n5n27 0
y_n5n28 0
y_n5n29 0
y_n5n30 0
y_n5n31 0
y_n5n32 0
y_n5n33 0
y_n5n34 0
y_n5n35 0
y_n5n36 0
y_n5n37 0
y_n5n38 0
y_n5n39 0
y_n5n40 0
y_n5n41 0
y_n5n42 0
y_n5n43 0
y_n5n44 0
y_n5n45 0
y_n5n46 0
y_n5n47 0
y_n5n48 0
y_n5n49 0
y_n5n50 0
y_n5n51 0
y_n5n52 0
y_n5n53 0
y_n5n54 0
y_n5n55 0
y_n5n56 0
y_n5n57 0
y_n5n58 0
y_n5n59 0
y_n6n7 0
y_n6n8 0
y_n6n9 0
y_n6n10 0
y_n6n11 0
y_n6n12 0
y_n6n13 0
y_n6n14 0
y_n6n15 0
y_n6n16 0
y_n6n17 0
y_n6n18 0
y_n6n19 0
y_n6n20 0
y_n6n21 0
y_n6n22 0
y_n6n23 0
y_n6n24 0
y_n6n25 0
y_n6n26 0
y_n6n27 0
y_n6n28 0
y_n6n29 0
y_n6n30 0
y_n6n31 0
y_n6n32 0
y_n6n33 0
y_n6n34 0
y_n6n35 0
y_n6n36 0
y_n6n37 0
y_n6n38 0
y_n6n39 0
y_n6n40 0
y_n6n41 0
y_n6n42 0
y_n6n43 0
y_n6n44 0
y_n6n45 0
y_n6n46 0
y_n6n47 0
y_n6n48 0
y_n6n49 0
y_n6n50 0
y_n6n51 0
y_n6n52 0
y_n6n53 0
y_n6n54 0
y_n6n55 0
y_n6n56 0
y_n6n57 0
y_n6n58 0
y_n6n59 0
y_n7n8 0
y_n7n9 0
y_n7n10 0
y_n7n11 0
y_n7n12 0
y_n7n13 0
y_n7n14 0
y_n7n15 0
y_n7n16 0
y_n7n17 0
y_n7n18 0
y_n7n19 0
y_n7n20 0
y_n7n21 0
y_n7n22 0
y_n7n23 0
y_n7n24 0
y_n7n25 0
y_n7n26 0
y_n7n27 0
y_n7n28 0
y_n7n29 0
y_n7n30 0
y_n7n31 0
y_n7n32 0
y_n7n33 0
y_n7n34 0
y_n7n35 0
y_n7n36 0
y_n7n37 0
y_n7n38 0
y_n7n39 0
y_n7n40 0
y_n7n41 0
y_n7n42 0
y_n7n43 0
y_n7n44 0
y_n7n45 0
y_n7n46 0
y_n7n47 0
y_n7n48 0
y_n7n49 0
y_n7n50 0
y_n7n51 0
y_n7n52 0
y_n7n53 0
y_n7n54 0
y_n7n55 0
y_n7n56 0
y_n7n57 0
y_n7n58 0
y_n7n59 0
y_n8n9 0
y_n8n10 0
y_n8n11 0
y_n8n12 0
y_n8n13 0
y_n8n14 0
y_n8n15 0
y_n8n16 0
y_n8n17 0
y_n8n18 0
y_n8n19 0
y_n8n20 0
y_n8n21 0
y_n8n22 0
y_n8n23 0
y_n8n24 0
y_n8n25 0
y_n8n26 0
y_n8n27 0
y_n8n28 0
y_n8n29 0
y_n8n30 0
y_n8n31 0
y_n8n32 0
y_n8n33 0
y_n8n34 0
y_n8n35 0
y_n8n36 0
y_n8n37 0
y_n8n38 0
y_n8n39 0
y_n8n40 0
y_n8n41 0
y_n8n42 0
y_n8n43 0
y_n8n44 0
y_n8n45 0
y_n8n46 0
y_n8n47 0
y_n8n48 0
y_n8n49 0
y_n8n50 0
y_n8n51 0
y_n8n52 0
y_n8n53 0
y_n8n54 0
y_n8n55 0
y_n8n56 0
y_n8n57 0
y_n8n58 0
y_n8n59 0
y_n9n10 1
y_n9n11 1
y_n9n12 1
y_n9n13 1
y_n9n14 1
y_n9n15 1
y_n9n16 1
y_n9n17 1
y_n9n18 1
y_n9n19 1
y_n9n20 1
y_n9n21 1
y_n9n22 1
y_n9n23 1
y_n9n24 1
y_n9n25 1
y_n9n26 1
y_n9n27 1
y_n9n28 1
y_n9n29 1
y_n9n30 1
y_n9n31 0
y_n9n32 0
y_n9n33 0
y_n9n34 0
y_n9n35 0
y_n9n36 0
y_n9n37 0
y_n9n38 0
y_n9n39 0
y_n9n40 0
y_n9n41 0
y_n9n42 0
y_n9n43 0
y_n9n44 0
y_n9n45 0
y_n9n46 0
y_n9n47 0
y_n9n48 0
y_n9n49 0
y_n9n50 0
y_n9n51 0
y_n9n52 0
y_n9n53 0
y_n9n54 0
y_n9n55 0
y_n9n56 0
y_n9n57 0
y_n9n58 0
y_n9n59 0
y_n10n11 0
y_n10n12 0
y_n10n13 0
y_n10n14 0
y_n10n15 0
y_n10n16 0
y_n10n17 0
y_n10n18 0
y_n10n19 0
y_n10n20 0
y_n10n21 0
y_n10n22 0
y_n10n23 0
y_n10n24 0
y_n10n25 0
y_n10n26 0
y_n10n27 0
y_n10n28 0
y_n10n29 0
y_n10n30 0
y_n10n31 0
y_n10n32 0
y_n10n33 0
y_n10n34 0
y_n10n35 0
y_n10n36 0
y_n10n37 0
y_n10n38 0
y_n10n39 0
y_n10n40 0
y_n10n41 0
y_n10n42 0
y_n10n43 0
y_n10n44 0
y_n10n45 0
y_n10n46 0
y_n10n47 0
y_n10n48 0
y_n10n49 0
y_n10n50 0
y_n10n51 0
y_n10n52 0
y_n10n53 0
y_n10n54 0
y_n10n55 0
y_n10n56 0
y_n10n57 0
y_n10n58 0
y_n10n59 0
y_n11n12 0
y_n11n13 0
y_n11n14 0
y_n11n15 0
y_n11n16 0
y_n11n17 0
y_n11n18 0
y_n11n19 0
y_n11n20 0
y_n11n21 0
y_n11n22 0
y_n11n23 0
y_n11n24 0
y_n11n25 0
y_n11n26 0
y_n11n27 0
y_n11n28 0
y_n11n29 0
y_n11n30 0
y_n11n31 0
y_n11n32 0
y_n11n33 0
y_n11n34 0
y_n11n35 0
y_n11n36 0
y_n11n37 0
y_n11n38 0
y_n11n39 0
y_n11n40 0
y_n11n41 0
y_n11n42 0
y_n11n43 0
y_n11n44 0
y_n11n45 0
y_n11n46 0
y_n11n47 0
y_n11n48 0
y_n11n49 0
y_n11n50 0
y_n11n51 0
y_n11n52 0
y_n11n53 0
y_n11n54 0
y_n11n55 0
y_n11n56 0
y_n11n57 0
y_n11n58 0
y_n11n59 0
y_n12n13 0
y_n12n14 0
y_n12n15 0
y_n12n16 0
y_n12n17 0
y_n12n18 0
y_n12n19 0
y_n12n20 0
y_n12n21 0
y_n12n22 0
y_n12n23 0
y_n12n24 0
y_n12n25 0
y_n12n26 0
y_n12n27 0
y_n12n28 0
y_n12n29 0
y_n12n30 0
y_n12n31 0
y_n12n32 0
y_n12n33 0
y_n12n34 0
y_n12n35 0
y_n12n36 0
y_n12n37 0
y_n12n38 0
y_n12n39 0
y_n12n40 0
y_n12n41 0
y_n12n42 0
y_n12n43 0
y_n12n44 0
y_n12n45 0
y_n12n46 0
y_n12n47 0
y_n12n48 0
y_n12n49 0
y_n12n50 0
y_n12n51 0
y_n12n52 0
y_n12n53 0
y_n12n54 0
y_n12n55 0
y_n12n56 0
y_n12n57 0
y_n12n58 0
y_n12n59 0
y_n13n14 0
y_n13n15 0
y_n13n16 0
y_n13n17 0
y_n13n18 0
y_n13n19 0
y_n13n20 0
y_n13n21 0
y_n13n22 0
y_n13n23 0
y_n13n24 0
y_n13n25 0
y_n13n26 0
y_n13n27 0
y_n13n28 0
y_n13n29 0
y_n13n30 0
y_n13n31 0
y_n13n32 0
y_n13n33 0
y_n13n34 0
y_n13n35 0
y_n13n36 0
y_n13n37 0
y_n13n38 0
y_n13n39 0
y_n13n40 0
y_n13n41 0
y_n13n42 0
y_n13n43 0
y_n13n44 0
y_n13n45 0
y_n13n46 0
y_n13n47 0
y_n13n48 0
y_n13n49 0
y_n13n50 0
y_n13n51 0
y_n13n52 0
y_n13n53 0
y_n13n54 0
y_n13n55 0
y_n13n56 0
y_n13n57 0
y_n13n58 0
y_n13n59 0
y_n14n15 0
y_n14n16 0
y_n14n17 0
y_n14n18 0
y_n14n19 0
y_n14n20 0
y_n14n21 0
y_n14n22 0
y_n14n23 0
y_n14n24 0
y_n14n25 0
y_n14n26 0
y_n14n27 0
y_n14n28 0
y_n14n29 0
y_n14n30 0
y_n14n31 0
y_n14n32 0
y_n14n33 0
y_n14n34 0
y_n14n35 0
y_n14n36 0
y_n14n37 0
y_n14n38 0
y_n14n39 0
y_n14n40 0
y_n14n41 0
y_n14n42 0
y_n14n43 0
y_n14n44 0
y_n14n45 0
y_n14n46 0
y_n14n47 0
y_n14n48 0
y_n14n49 0
y_n14n50 0
y_n14n51 0
y_n14n52 0
y_n14n53 0
y_n14n54 0
y_n14n55 0
y_n14n56 0
y_n14n57 0
y_n14n58 0
y_n14n59 0
y_n15n16 0
y_n15n17 0
y_n15n18 0
y_n15n19 0
y_n15n20 0
y_n15n21 0
y_n15n22 0
y_n15n23 0
y_n15n24 0
y_n15n25 0
y_n15n26 0
y_n15n27 0
y_n15n28 0
y_n15n29 0
y_n15n30 0
y_n15n31 0
y_n15n32 0
y_n15n33 0
y_n15n34 0
y_n15n35 0
y_n15n36 0
y_n15n37 0
y_n15n38 0
y_n15n39 0
y_n15n40 0
y_n15n41 0
y_n15n42 0
y_n15n43 0
y_n15n44 0
y_n15n45 0
y_n15n46 0
y_n15n47 0
y_n15n48 0
y_n15n49 0
y_n15n50 0
y_n15n51 0
y_n15n52 0
y_n15n53 0
y_n15n54 0
y_n15n55 0
y_n15n56 0
y_n15n57 0
y_n15n58 0
y_n15n59 0
y_n16n17 0
y_n16n18 0
y_n16n19 0
y_n16n20 0
y_n16n21 0
y_n16n22 0
y_n16n23 0
y_n16n24 0
y_n16n25 0
y_n16n26 0
y_n16n27 0
y_n16n28 0
y_n16n29 0
y_n16n30 0
y_n16n31 0
y_n16n32 0
y_n16n33 0
y_n16n34 0
y_n16n35 0
y_n16n36 0
y_n16n37 0
y_n16n38 0
y_n16n39 0
y_n16n40 0
y_n16n41 0
y_n16n42 0
y_n16n43 0
y_n16n44 0
y_n16n45 0
y_n16n46 0
y_n16n47 0
y_n16n48 0
y_n16n49 0
y_n16n50 0
y_n16n51 0
y_n16n52 0
y_n16n53 0
y_n16n54 0
y_n16n55 0
y_n16n56 0
y_n16n57 0
y_n16n58 0
y_n16n59 0
y_n17n18 0
y_n17n19 0
y_n17n20 0
y_n17n21 0
y_n17n22 0
y_n17n23 0
y_n17n24 0
y_n17n25 0
y_n17n26 0
y_n17n27 0
y_n17n28 0
y_n17n29 0
y_n17n30 0
y_n17n31 0
y_n17n32 0
y_n17n33 0
y_n17n34 0
y_n17n35 0
y_n17n36 0
y_n17n37 0
y_n17n38 0
y_n17n39 0
y_n17n40 0
y_n17n41 0
y_n17n42 0
y_n17n43 0
y_n17n44 0
y_n17n45 0
y_n17n46 0
y_n17n47 0
y_n17n48 0
y_n17n49 0
y_n17n50 0
y_n17n51 0
y_n17n52 0
y_n17n53 0
y_n17n54 0
y_n17n55 0
y_n17n56 0
y_n17n57 0
y_n17n58 0
y_n17n59 0
y_n18n19 0
y_n18n20 0
y_n18n21 0
y_n18n22 0
y_n18n23 0
y_n18n24 0
y_n18n25 0
y_n18n26 0
y_n18n27 0
y_n18n28 0
y_n18n29 0
y_n18n30 0
y_n18n31 0
y_n18n32 0
y_n18n33 0
y_n18n34 0
y_n18n35 0
y_n18n36 0
y_n18n37 0
y_n18n38 0
y_n18n39 0
y_n18n40 0
y_n18n41 0
y_n18n42 0
y_n18n43 0
y_n18n44 0
y_n18n45 0
y_n18n46 0
y_n18n47 0
y_n18n48 0
y_n18n49 0
y_n18n50 0
y_n18n51 0
y_n18n52 0
y_n18n53 0
y_n18n54 0
y_n18n55 0
y_n18n56 0
y_n18n57 0
y_n18n58 0
y_n18n59 0
y_n19n20 0
y_n19n21 0
y_n19n22 0
y_n19n23 0
y_n19n24 0
y_n19n25 0
y_n19n26 0
y_n19n27 0
y_n19n28 0
y_n19n29 0
y_n19n30 0
y_n19n31 0
y_n19n32 0
y_n19n33 0
y_n19n34 0
y_n19n35 0
y_n19n36 0
y_n19n37 0
y_n19n38 0
y_n19n39 0
y_n19n40 0
y_n19n41 0
y_n19n42 0
y_n19n43 0
y_n19n44 0
y_n19n45 0
y_n19n46 0
y_n19n47 0
y_n19n48 0
y_n19n49 0
y_n19n50 0
y_n19n51 0
y_n19n52 0
y_n19n53 0
y_n19n54 0
y_n19n55 0
y_n19n56 0
y_n19n57 0
y_n19n58 0
y_n19n59 0
y_n20n21 0
y_n20n22 0
y_n20n23 0
y_n20n24 0
y_n20n25 0
y_n20n26 0
y_n20n27 0
y_n20n28 0
y_n20n29 0
y_n20n30 0
y_n20n31 0
y_n20n32 0
y_n20n33 0
y_n20n34 0
y_n20n35 0
y_n20n36 0
y_n20n37 0
y_n20n38 0
y_n20n39 0
y_n20n40 0
y_n20n41 0
y_n20n42 0
y_n20n43 0
y_n20n44 0
y_n20n45 0
y_n20n46 0
y_n20n47 0
y_n20n48 0
y_n20n49 0
y_n20n50 0
y_n20n51 0
y_n20n52 0
y_n20n53 0
y_n20n54 0
y_n20n55 0
y_n20n56 0
y_n20n57 0
y_n20n58 0
y_n20n59 0
y_n21n22 0
y_n21n23 0
y_n21n24 0
y_n21n25 0
y_n21n26 0
y_n21n27 0
y_n21n28 0
y_n21n29 0
y_n21n30 0
y_n21n31 0
y_n21n32 0
y_n21n33 0
y_n21n34 0
y_n21n35 0
y_n21n36 0
y_n21n37 0
y_n21n38 0
y_n21n39 0
y_n21n40 0
y_n21n41 0
y_n21n42 0
y_n21n43 0
y_n21n44 0
y_n21n45 0
y_n21n46 0
y_n21n47 0
y_n21n48 0
y_n21n49 0
y_n21n50 0
y_n21n51 0
y_n21n52 0
y_n21n53 0
y_n21n54 0
y_n21n55 0
y_n21n56 0
y_n21n57 0
y_n21n58 0
y_n21n59 0
y_n22n23 0
y_n22n24 0
y_n22n25 0
y_n22n26 0
y_n22n27 0
y_n22n28 0
y_n22n29 0
y_n22n30 0
y_n22n31 0
y_n22n32 0
y_n22n33 0
y_n22n34 0
y_n22n35 0
y_n22n36 0
y_n22n37 0
y_n22n38 0
y_n22n39 0
y_n22n40 0
y_n22n41 0
y_n22n42 0
y_n22n43 0
y_n22n44 0
y_n22n45 0
y_n22n46 0
y_n22n47 0
y_n22n48 0
y_n22n49 0
y_n22n50 0
y_n22n51 0
y_n22n52 0
y_n22n53 0
y_n22n54 0
y_n22n55 0
y_n22n56 0
y_n22n57 0
y_n22n58 0
y_n22n59 0
y_n23n24 0
y_n23n25 0
y_n23n26 0
y_n23n27 0
y_n23n28 0
y_n23n29 0
y_n23n30 0
y_n23n31 0
y_n23n32 0
y_n23n33 0
y_n23n34 0
y_n23n35 0
y_n23n36 0
y_n23n37 0
y_n23n38 0
y_n23n39 0
y_n23n40 0
y_n23n41 0
y_n23n42 0
y_n23n43 0
y_n23n44 0
y_n23n45 0
y_n23n46 0
y_n23n47 0
y_n23n48 0
y_n23n49 0
y_n23n50 0
y_n23n51 0
y_n23n52 0
y_n23n53 0
y_n23n54 0
y_n23n55 0
y_n23n56 0
y_n23n57 0
y_n23n58 0
y_n23n59 0
y_n24n25 0
y_n24n26 0
y_n24n27 0
y_n24n28 0
y_n24n29 0
y_n24n30 0
y_n24n31 0
y_n24n32 0
y_n24n33 0
y_n24n34 0
y_n24n35 0
y_n24n36 0
y_n24n37 0
y_n24n38 0
y_n24n39 0
y_n24n40 0
y_n24n41 0
y_n24n42 0
y_n24n43 0
y_n24n44 0
y_n24n45 0
y_n24n46 0
y_n24n47 0
y_n24n48 0
y_n24n49 0
y_n24n50 0
y_n24n51 0
y_n24n52 0
y_n24n53 0
y_n24n54 0
y_n24n55 0
y_n24n56 0
y_n24n57 0
y_n24n58 0
y_n24n59 0
y_n25n26 0
y_n25n27 0
y_n25n28 0
y_n25n29 0
y_n25n30 0
y_n25n31 0
y_n25n32 0
y_n25n33 0
y_n25n34 0
y_n25n35 0
y_n25n36 0
y_n25n37 0
y_n25n38 0
y_n25n39 0
y_n25n40 0
y_n25n41 0
y_n25n42 0
y_n25n43 0
y_n25n44 0
y_n25n45 0
y_n25n46 0
y_n25n47 0
y_n25n48 0
y_n25n49 0
y_n25n50 0
y_n25n51 0
y_n25n52 0
y_n25n53 0
y_n25n54 0
y_n25n55 0
y_n25n56 0
y_n25n57 0
y_n25n58 0
y_n25n59 0
y_n26n27 0
y_n26n28 0
y_n26n29 0
y_n26n30 0
y_n26n31 0
y_n26n32 0
y_n26n33 0
y_n26n34 0
y_n26n35 0
y_n26n36 0
y_n26n37 0
y_n26n38 0
y_n26n39 0
y_n26n40 0
y_n26n41 0
y_n26n42 0
y_n26n43 0
y_n26n44 0
y_n26n45 0
y_n26n46 0
y_n26n47 0
y_n26n48 0
y_n26n49 0
y_n26n50 0
y_n26n51 0
y_n26n52 0
y_n26n53 0
y_n26n54 0
y_n26n55 0
y_n26n56 0
y_n26n57 0
y_n26n58 0
y_n26n59 0
y_n27n28 0
y_n27n29 0
y_n27n30 0
y_n27n31 0
y_n27n32 0
y_n27n33 0
y_n27n34 0
y_n27n35 0
y_n27n36 0
y_n27n37 0
y_n27n38 0
y_n27n39 0
y_n27n40 0
y_n27n41 0
y_n27n42 0
y_n27n43 0
y_n27n44 0
y_n27n45 0
y_n27n46 0
y_n27n47 0
y_n27n48 0
y_n27n49 0
y_n27n50 0
y_n27n51 0
y_n27n52 0
y_n27n53 0
y_n27n54 0
y_n27n55 0
y_n27n56 0
y_n27n57 0
y_n27n58 0
y_n27n59 0
y_n28n29 0
y_n28n30 0
y_n28n31 0
y_n28n32 0
y_n28n33 0
y_n28n34 0
y_n28n35 0
y_n28n36 0
y_n28n37 0
y_n28n38 0
y_n28n39 0
y_n28n40 0
y_n28n41 0
y_n28n42 0
y_n28n43 0
y_n28n44 0
y_n28n45 0
y_n28n46 0
y_n28n47 0
y_n28n48 0
y_n28n49 0
y_n28n50 0
y_n28n51 0
y_n28n52 0
y_n28n53 0
y_n28n54 0
y_n28n55 0
y_n28n56 0
y_n28n57 0
y_n28n58 0
y_n28n59 0
y_n29n30 0
y_n29n31 0
y_n29n32 0
y_n29n33 0
y_n29n34 0
y_n29n35 0
y_n29n36 0
y_n29n37 0
y_n29n38 0
y_n29n39 0
y_n29n40 0
y_n29n41 0
y_n29n42 0
y_n29n43 0
y_n29n44 0
y_n29n45 0
y_n29n46 0
y_n29n47 0
y_n29n48 0
y_n29n49 0
y_n29n50 0
y_n29n51 0
y_n29n52 0
y_n29n53 0
y_n29n54 0
y_n29n55 0
y_n29n56 0
y_n29n57 0
y_n29n58 0
y_n29n59 0
y_n30n31 0
y_n30n32 0
y_n30n33 0
y_n30n34 0
y_n30n35 0
y_n30n36 0
y_n30n37 0
y_n30n38 0
y_n30n39 0
y_n30n40 0
y_n30n41 0
y_n30n42 0
y_n30n43 0
y_n30n44 0
y_n30n45 0
y_n30n46 0
y_n30n47 0
y_n30n48 0
y_n30n49 0
y_n30n50 0
y_n30n51 0
y_n30n52 0
y_n30n53 0
y_n30n54 0
y_n30n55 0
y_n30n56 0
y_n30n57 0
y_n30n58 0
y_n30n59 0
y_n31n32 1
y_n31n33 0
y_n31n34 0
y_n31n35 0
y_n31n36 0
y_n31n37 0
y_n31n38 0
y_n31n39 0
y_n31n40 0
y_n31n41 0
y_n31n42 0
y_n31n43 0
y_n31n44 0
y_n31n45 0
y_n31n46 0
y_n31n47 0
y_n31n48 0
y_n31n49 0
y_n31n50 0
y_n31n51 0
y_n31n52 1
y_n31n53 0
y_n31n54 0
y_n31n55 0
y_n31n56 0
y_n31n57 0
y_n31n58 0
y_n31n59 0
y_n32n33 0
y_n32n34 0
y_n32n35 0
y_n32n36 0
y_n32n37 0
y_n32n38 0
y_n32n39 0
y_n32n40 0
y_n32n41 0
y_n32n42 0
y_n32n43 0
y_n32n44 0
y_n32n45 0
y_n32n46 0
y_n32n47 0
y_n32n48 0
y_n32n49 0
y_n32n50 0
y_n32n51 0
y_n32n52 0
y_n32n53 0
y_n32n54 0
y_n32n55 0
y_n32n56 0
y_n32n57 0
y_n32n58 0
y_n32n59 0
y_n33n34 0
y_n33n35 0
y_n33n36 0
y_n33n37 0
y_n33n38 0
y_n33n39 0
y_n33n40 0
y_n33n41 0
y_n33n42 0
y_n33n43 0
y_n33n44 0
y_n33n45 0
y_n33n46 0
y_n33n47 0
y_n33n48 0
y_n33n49 0
y_n33n50 0
y_n33n51 0
y_n33n52 1
y_n33n53 0
y_n33n54 0
y_n33n55 0
y_n33n56 0
y_n33n57 0
y_n33n58 0
y_n33n59 0
y_n34n35 0
y_n34n36 0
y_n34n37 0
y_n34n38 0
y_n34n39 0
y_n34n40 0
y_n34n41 0
y_n34n42 0
y_n34n43 0
y_n34n44 0
y_n34n45 0
y_n34n46 0
y_n34n47 0
y_n34n48 0
y_n34n49 0
y_n34n50 0
y_n34n51 0
y_n34n52 1
y_n34n53 0
y_n34n54 0
y_n34n55 0
y_n34n56 0
y_n34n57 0
y_n34n58 0
y_n34n59 0
y_n35n36 0
y_n35n37 0
y_n35n38 0
y_n35n39 0
y_n35n40 0
y_n35n41 0
y_n35n42 0
y_n35n43 0
y_n35n44 0
y_n35n45 0
y_n35n46 0
y_n35n47 0
y_n35n48 0
y_n35n49 0
y_n35n50 0
y_n35n51 0
y_n35n52 1
y_n35n53 0
y_n35n54 0
y_n35n55 0
y_n35n56 0
y_n35n57 0
y_n35n58 0
y_n35n59 0
y_n36n37 0
y_n36n38 0
y_n36n39 0
y_n36n40 0
y_n36n41 0
y_n36n42 0
y_n36n43 0
y_n36n44 0
y_n36n45 0
y_n36n46 0
y_n36n47 0
y_n36n48 0
y_n36n49 0
y_n36n50 0
y_n36n51 0
y_n36n52 1
y_n36n53 0
y_n36n54 0
y_n36n55 0
y_n36n56 0
y_n36n57 0
y_n36n58 0
y_n36n59 0
y_n37n38 0
y_n37n39 0
y_n37n40 0
y_n37n41 0
y_n37n42 0
y_n37n43 0
y_n37n44 0
y_n37n45 0
y_n37n46 0
y_n37n47 0
y_n37n48 0
y_n37n49 0
y_n37n50 0
y_n37n51 0
y_n37n52 1
y_n37n53 0
y_n37n54 0
y_n37n55 0
y_n37n56 0
y_n37n57 0
y_n37n58 0
y_n37n59 0
y_n38n39 0
y_n38n40 0
y_n38n41 0
y_n38n42 0
y_n38n43 0
y_n38n44 0
y_n38n45 0
y_n38n46 0
y_n38n47 0
y_n38n48 0
y_n38n49 0
y_n38n50 0
y_n38n51 0
y_n38n52 1
y_n38n53 0
y_n38n54 0
y_n38n55 0
y_n38n56 0
y_n38n57 0
y_n38n58 0
y_n38n59 0
y_n39n40 0
y_n39n41 0
y_n39n42 0
y_n39n43 0
y_n39n44 0
y_n39n45 0
y_n39n46 0
y_n39n47 0
y_n39n48 0
y_n39n49 0
y_n39n50 0
y_n39n51 0
y_n39n52 1
y_n39n53 0
y_n39n54 0
y_n39n55 0
y_n39n56 0
y_n39n57 0
y_n39n58 0
y_n39n59 0
y_n40n41 0
y_n40n42 0
y_n40n43 0
y_n40n44 0
y_n40n45 0
y_n40n46 0
y_n40n47 0
y_n40n48 0
y_n40n49 0
y_n40n50 0
y_n40n51 0
y_n40n52 1
y_n40n53 0
y_n40n54 0
y_n40n55 0
y_n40n56 0
y_n40n57 0
y_n40n58 0
y_n40n59 0
y_n41n42 0
y_n41n43 0
y_n41n44 0
y_n41n45 0
y_n41n46 0
y_n41n47 0
y_n41n48 0
y_n41n49 0
y_n41n50 0
y_n41n51 0
y_n41n52 1
y_n41n53 0
y_n41n54 0
y_n41n55 0
y_n41n56 0
y_n41n57 0
y_n41n58 0
y_n41n59 0
y_n42n43 0
y_n42n44 0
y_n42n45 0
y_n42n46 0
y_n42n47 0
y_n42n48 0
y_n42n49 0
y_n42n50 0
y_n42n51 0
y_n42n52 1
y_n42n53 0
y_n42n54 0
y_n42n55 0
y_n42n56 0
y_n42n57 0
y_n42n58 0
y_n42n59 0
y_n43n44 0
y_n43n45 0
y_n43n46 0
y_n43n47 0
y_n43n48 0
y_n43n49 0
y_n43n50 0
y_n43n51 0
y_n43n52 1
y_n43n53 0
y_n43n54 0
y_n43n55 0
y_n43n56 0
y_n43n57 0
y_n43n58 0
y_n43n59 0
y_n44n45 0
y_n44n46 0
y_n44n47 0
y_n44n48 0
y_n44n49 0
y_n44n50 0
y_n44n51 0
y_n44n52 1
y_n44n53 0
y_n44n54 0
y_n44n55 0
y_n44n56 0
y_n44n57 0
y_n44n58 0
y_n44n59 0
y_n45n46 0
y_n45n47 0
y_n45n48 0
y_n45n49 0
y_n45n50 0
y_n45n51 0
y_n45n52 1
y_n45n53 0
y_n45n54 0
y_n45n55 0
y_n45n56 0
y_n45n57 0
y_n45n58 0
y_n45n59 0
y_n46n47 0
y_n46n48 0
y_n46n49 0
y_n46n50 0
y_n46n51 0
y_n46n52 1
y_n46n53 0
y_n46n54 0
y_n46n55 0
y_n46n56 0
y_n46n57 0
y_n46n58 0
y_n46n59 0
y_n47n48 0
y_n47n49 0
y_n47n50 0
y_n47n51 0
y_n47n52 1
y_n47n53 0
y_n47n54 0
y_n47n55 0
y_n47n56 0
y_n47n57 0
y_n47n58 0
y_n47n59 0
y_n48n49 0
y_n48n50 0
y_n48n51 0
y_n48n52 1
y_n48n53 0
y_n48n54 0
y_n48n55 0
y_n48n56 0
y_n48n57 0
y_n48n58 0
y_n48n59 0
y_n49n50 0
y_n49n51 0
y_n49n52 1
y_n49n53 0
y_n49n54 0
y_n49n55 0
y_n49n56 0
y_n49n57 0
y_n49n58 0
y_n49n59 0
y_n50n51 0
y_n50n52 1
y_n50n53 0
y_n50n54 0
y_n50n55 0
y_n50n56 0
y_n50n57 0
y_n50n58 0
y_n50n59 0
y_n51n52 1
y_n51n53 0
y_n51n54 0
y_n51n55 0
y_n51n56 0
y_n51n57 0
y_n51n58 0
y_n51n59 0
y_n52n53 0
y_n52n54 0
y_n52n55 0
y_n52n56 0
y_n52n57 0
y_n52n58 0
y_n52n59 0
y_n53n54 0
y_n53n55 0
y_n53n56 0
y_n53n57 0
y_n53n58 0
y_n53n59 0
y_n54n55 0
y_n54n56 0
y_n54n57 0
y_n54n58 0
y_n54n59 0
y_n55n56 0
y_n55n57 0
y_n55n58 0
y_n55n59 0
y_n56n57 0
y_n56n58 0
y_n56n59 0
y_n57n58 0
y_n57n59 0
y_n58n59 0
pos_n0 59
pos_n1 58
pos_n2 57
pos_n3 56
pos_n4 55
pos_n5 54
pos_n6 53
pos_n7 52
pos_n8 51
pos_n9 29
pos_n10 50
pos_n11 49
pos_n12 48
pos_n13 47
pos_n14 46
pos_n15 45
pos_n16 44
pos_n17 43
pos_n18 42
pos_n19 41
pos_n20 40
pos_n21 39
pos_n22 38
pos_n23 37
pos_n24 36
pos_n25 35
pos_n26 34
pos_n27 33
pos_n28 32
pos_n29 31
pos_n30 30
pos_n31 26
pos_n32 28
pos_n33 25
pos_n34 24
pos_n35 23
pos_n36 22
pos_n37 21
pos_n38 20
pos_n39 19
pos_n40 18
pos_n41 17
pos_n42 16
pos_n43 15
pos_n44 14
pos_n45 13
pos_n46 12
pos_n47 11
pos_n48 10
pos_n49 9
pos_n50 8
pos_n51 7
pos_n52 27
pos_n53 6
pos_n54 5
pos_n55 4
pos_n56 3
pos_n57 2
pos_n58 1
pos_n59 0
z_n28n45 0
z_n28n59 0
z_n45n59 0
z_n19n30 0
z_n7n57 0
z_n5n11 0
z_n30n32 0
z_n30n52 0
z_n32n52 1
z_n26n43 0
z_n7n43 0
z_n26n37 0
z_n14n29 0
z_n13n18 0
z_n18n47 0
z_n6n56 0
z_n6n57 0
z_n56n57 0
z_n14n15 0
z_n40n53 0
z_n2n40 0
z_n2n53 0
z_n21n47 0
z_n20n38 0
z_n23n51 0
z_n22n24 0
z_n23n27 0
z_n30n57 0
z_n12n29 0
z_n10n12 0
z_n10n29 0
z_n24n31 0
z_n1n40 0
z_n13n26 0
z_n9n32 1
z_n25n32 0
z_n2n32 0
z_n9n52 0
z_n25n52 0
z_n2n52 0
z_n9n25 0
z_n2n9 0
z_n2n25 0
z_n27n33 0
z_n9n30 1
z_n31n35 0
z_n33n58 0
z_n54n58 0
z_n21n51 0
z_n41n58 0
z_n19n28 0
z_n39n42 0
z_n41n44 0
z_n8n11 0
z_n8n48 0
z_n8n10 0
z_n11n48 0
z_n10n11 0
z_n10n48 0
z_n42n49 0
z_n1n34 0
z_n15n16 0
z_n16n20 0
z_n15n20 0
z_n44n50 0
z_n49n55 0
z_n22n38 0
z_n3n30 0
z_n3n32 0
z_n3n9 0
z_n4n17 0
z_n17n46 0
z_n17n25 0
z_n5n17 0
z_n25n46 0
z_n5n46 0
z_n5n25 0
z_n35n36 0
z_n36n39 0
z_n35n39 0
z_n0n1 0
